p cnf 48 60
-1 -2 -3 -4 -5 11 -12 -13 -14 -15 -16 -17 -18 -19 -20 -21 -22 -23 -24 -26 -27 -28 -29 -30 -31 -32 -33 -34 -35 -36 -37 -38 -39 -40 -41 -42 -43 -44 -45 -46 -47 -48 0 
-1 -2 -3 -4 -5 12 -11 -13 -14 -15 -16 -17 -18 -19 -20 -21 -22 -23 -24 -26 -27 -28 -29 -30 -31 -32 -33 -34 -35 -36 -37 -38 -39 -40 -41 -42 -43 -44 -45 -46 -47 -48 0 
-1 -2 -3 -4 -5 13 -11 -12 -14 -15 -16 -17 -18 -19 -20 -21 -22 -23 -24 -26 -27 -28 -29 -30 -31 -32 -33 -34 -35 -36 -37 -38 -39 -40 -41 -42 -43 -44 -45 -46 -47 -48 0 
-1 -2 -3 -4 -5 14 -11 -12 -13 -15 -16 -17 -18 -19 -20 -21 -22 -23 -24 -26 -27 -28 -29 -30 -31 -32 -33 -34 -35 -36 -37 -38 -39 -40 -41 -42 -43 -44 -45 -46 -47 -48 0 
-1 -2 -3 -4 -5 15 -11 -12 -13 -14 -16 -17 -18 -19 -20 -21 -22 -23 -24 -26 -27 -28 -29 -30 -31 -32 -33 -34 -35 -36 -37 -38 -39 -40 -41 -42 -43 -44 -45 -46 -47 -48 0 
-1 -6 12 -11 -13 -14 -15 -16 -17 -18 -19 -20 -21 -22 -23 -24 -26 -27 -28 -29 -30 -31 -32 -33 -34 -35 -36 -37 -38 -39 -40 -41 -42 -43 -44 -45 -46 -47 -48 0 
-1 -6 14 -11 -12 -13 -15 -16 -17 -18 -19 -20 -21 -22 -23 -24 -26 -27 -28 -29 -30 -31 -32 -33 -34 -35 -36 -37 -38 -39 -40 -41 -42 -43 -44 -45 -46 -47 -48 0 
-1 -6 13 -11 -12 -14 -15 -16 -17 -18 -19 -20 -21 -22 -23 -24 -26 -27 -28 -29 -30 -31 -32 -33 -34 -35 -36 -37 -38 -39 -40 -41 -42 -43 -44 -45 -46 -47 -48 0 
-1 -6 11 -12 -13 -14 -15 -16 -17 -18 -19 -20 -21 -22 -23 -24 -26 -27 -28 -29 -30 -31 -32 -33 -34 -35 -36 -37 -38 -39 -40 -41 -42 -43 -44 -45 -46 -47 -48 0 
-1 -6 15 -11 -12 -13 -14 -16 -17 -18 -19 -20 -21 -22 -23 -24 -26 -27 -28 -29 -30 -31 -32 -33 -34 -35 -36 -37 -38 -39 -40 -41 -42 -43 -44 -45 -46 -47 -48 0 
-7 8 -1 12 -11 -13 -14 -15 -16 -17 -18 -19 -20 -21 -22 -23 -24 -26 -27 -28 -29 -30 -31 -32 -33 -34 -35 -36 -37 -38 -39 -40 -41 -42 -43 -44 -45 -46 -47 -48 0 
-7 8 -1 16 -11 -12 -13 -14 -15 -17 -18 -19 -20 -21 -22 -23 -24 -26 -27 -28 -29 -30 -31 -32 -33 -34 -35 -36 -37 -38 -39 -40 -41 -42 -43 -44 -45 -46 -47 -48 0 
-7 8 -1 17 -11 -12 -13 -14 -15 -16 -18 -19 -20 -21 -22 -23 -24 -26 -27 -28 -29 -30 -31 -32 -33 -34 -35 -36 -37 -38 -39 -40 -41 -42 -43 -44 -45 -46 -47 -48 0 
-7 8 -1 18 -11 -12 -13 -14 -15 -16 -17 -19 -20 -21 -22 -23 -24 -26 -27 -28 -29 -30 -31 -32 -33 -34 -35 -36 -37 -38 -39 -40 -41 -42 -43 -44 -45 -46 -47 -48 0 
-7 8 -1 19 -11 -12 -13 -14 -15 -16 -17 -18 -20 -21 -22 -23 -24 -26 -27 -28 -29 -30 -31 -32 -33 -34 -35 -36 -37 -38 -39 -40 -41 -42 -43 -44 -45 -46 -47 -48 0 
-7 8 -1 20 -11 -12 -13 -14 -15 -16 -17 -18 -19 -21 -22 -23 -24 -26 -27 -28 -29 -30 -31 -32 -33 -34 -35 -36 -37 -38 -39 -40 -41 -42 -43 -44 -45 -46 -47 -48 0 
-7 8 -1 21 -11 -12 -13 -14 -15 -16 -17 -18 -19 -20 -22 -23 -24 -26 -27 -28 -29 -30 -31 -32 -33 -34 -35 -36 -37 -38 -39 -40 -41 -42 -43 -44 -45 -46 -47 -48 0 
-7 8 -1 22 -11 -12 -13 -14 -15 -16 -17 -18 -19 -20 -21 -23 -24 -26 -27 -28 -29 -30 -31 -32 -33 -34 -35 -36 -37 -38 -39 -40 -41 -42 -43 -44 -45 -46 -47 -48 0 
-7 8 -1 23 -11 -12 -13 -14 -15 -16 -17 -18 -19 -20 -21 -22 -24 -26 -27 -28 -29 -30 -31 -32 -33 -34 -35 -36 -37 -38 -39 -40 -41 -42 -43 -44 -45 -46 -47 -48 0 
-7 8 -1 24 -11 -12 -13 -14 -15 -16 -17 -18 -19 -20 -21 -22 -23 -26 -27 -28 -29 -30 -31 -32 -33 -34 -35 -36 -37 -38 -39 -40 -41 -42 -43 -44 -45 -46 -47 -48 0 
-1 -3 25 0 
-7 8 16 -11 -12 -13 -14 -15 -17 -18 -19 -20 -21 -22 -23 -24 -26 -27 -28 -29 -30 -31 -32 -33 -34 -35 -36 -37 -38 -39 -40 -41 -42 -43 -44 -45 -46 -47 -48 0 
-7 8 19 -11 -12 -13 -14 -15 -16 -17 -18 -20 -21 -22 -23 -24 -26 -27 -28 -29 -30 -31 -32 -33 -34 -35 -36 -37 -38 -39 -40 -41 -42 -43 -44 -45 -46 -47 -48 0 
-8 7 -1 26 -11 -12 -13 -14 -15 -16 -17 -18 -19 -20 -21 -22 -23 -24 -27 -28 -29 -30 -31 -32 -33 -34 -35 -36 -37 -38 -39 -40 -41 -42 -43 -44 -45 -46 -47 -48 0 
-8 7 -1 27 -11 -12 -13 -14 -15 -16 -17 -18 -19 -20 -21 -22 -23 -24 -26 -28 -29 -30 -31 -32 -33 -34 -35 -36 -37 -38 -39 -40 -41 -42 -43 -44 -45 -46 -47 -48 0 
-1 -7 8 28 -11 -12 -13 -14 -15 -16 -17 -18 -19 -20 -21 -22 -23 -24 -26 -27 -29 -30 -31 -32 -33 -34 -35 -36 -37 -38 -39 -40 -41 -42 -43 -44 -45 -46 -47 -48 0 
-1 29 -11 -12 -13 -14 -15 -16 -17 -18 -19 -20 -21 -22 -23 -24 -26 -27 -28 -30 -31 -32 -33 -34 -35 -36 -37 -38 -39 -40 -41 -42 -43 -44 -45 -46 -47 -48 0 
-1 28 -11 -12 -13 -14 -15 -16 -17 -18 -19 -20 -21 -22 -23 -24 -26 -27 -29 -30 -31 -32 -33 -34 -35 -36 -37 -38 -39 -40 -41 -42 -43 -44 -45 -46 -47 -48 0 
-7 8 30 -11 -12 -13 -14 -15 -16 -17 -18 -19 -20 -21 -22 -23 -24 -26 -27 -28 -29 -31 -32 -33 -34 -35 -36 -37 -38 -39 -40 -41 -42 -43 -44 -45 -46 -47 -48 0 
-7 8 -1 31 -11 -12 -13 -14 -15 -16 -17 -18 -19 -20 -21 -22 -23 -24 -26 -27 -28 -29 -30 -32 -33 -34 -35 -36 -37 -38 -39 -40 -41 -42 -43 -44 -45 -46 -47 -48 0 
-8 7 -1 32 -11 -12 -13 -14 -15 -16 -17 -18 -19 -20 -21 -22 -23 -24 -26 -27 -28 -29 -30 -31 -33 -34 -35 -36 -37 -38 -39 -40 -41 -42 -43 -44 -45 -46 -47 -48 0 
-8 7 -1 33 -11 -12 -13 -14 -15 -16 -17 -18 -19 -20 -21 -22 -23 -24 -26 -27 -28 -29 -30 -31 -32 -34 -35 -36 -37 -38 -39 -40 -41 -42 -43 -44 -45 -46 -47 -48 0 
-7 8 34 -11 -12 -13 -14 -15 -16 -17 -18 -19 -20 -21 -22 -23 -24 -26 -27 -28 -29 -30 -31 -32 -33 -35 -36 -37 -38 -39 -40 -41 -42 -43 -44 -45 -46 -47 -48 0 
-7 8 -9 35 -11 -12 -13 -14 -15 -16 -17 -18 -19 -20 -21 -22 -23 -24 -26 -27 -28 -29 -30 -31 -32 -33 -34 -36 -37 -38 -39 -40 -41 -42 -43 -44 -45 -46 -47 -48 0 
-7 8 -1 36 -11 -12 -13 -14 -15 -16 -17 -18 -19 -20 -21 -22 -23 -24 -26 -27 -28 -29 -30 -31 -32 -33 -34 -35 -37 -38 -39 -40 -41 -42 -43 -44 -45 -46 -47 -48 0 
-7 8 -1 37 -11 -12 -13 -14 -15 -16 -17 -18 -19 -20 -21 -22 -23 -24 -26 -27 -28 -29 -30 -31 -32 -33 -34 -35 -36 -38 -39 -40 -41 -42 -43 -44 -45 -46 -47 -48 0 
-7 8 -1 38 -11 -12 -13 -14 -15 -16 -17 -18 -19 -20 -21 -22 -23 -24 -26 -27 -28 -29 -30 -31 -32 -33 -34 -35 -36 -37 -39 -40 -41 -42 -43 -44 -45 -46 -47 -48 0 
-7 8 -1 39 -11 -12 -13 -14 -15 -16 -17 -18 -19 -20 -21 -22 -23 -24 -26 -27 -28 -29 -30 -31 -32 -33 -34 -35 -36 -37 -38 -40 -41 -42 -43 -44 -45 -46 -47 -48 0 
-7 8 -1 40 -11 -12 -13 -14 -15 -16 -17 -18 -19 -20 -21 -22 -23 -24 -26 -27 -28 -29 -30 -31 -32 -33 -34 -35 -36 -37 -38 -39 -41 -42 -43 -44 -45 -46 -47 -48 0 
-7 8 -1 41 -11 -12 -13 -14 -15 -16 -17 -18 -19 -20 -21 -22 -23 -24 -26 -27 -28 -29 -30 -31 -32 -33 -34 -35 -36 -37 -38 -39 -40 -42 -43 -44 -45 -46 -47 -48 0 
-7 8 -1 26 -11 -12 -13 -14 -15 -16 -17 -18 -19 -20 -21 -22 -23 -24 -27 -28 -29 -30 -31 -32 -33 -34 -35 -36 -37 -38 -39 -40 -41 -42 -43 -44 -45 -46 -47 -48 0 
-7 8 -1 42 -11 -12 -13 -14 -15 -16 -17 -18 -19 -20 -21 -22 -23 -24 -26 -27 -28 -29 -30 -31 -32 -33 -34 -35 -36 -37 -38 -39 -40 -41 -43 -44 -45 -46 -47 -48 0 
-7 8 -1 43 -11 -12 -13 -14 -15 -16 -17 -18 -19 -20 -21 -22 -23 -24 -26 -27 -28 -29 -30 -31 -32 -33 -34 -35 -36 -37 -38 -39 -40 -41 -42 -44 -45 -46 -47 -48 0 
-7 8 -1 44 -11 -12 -13 -14 -15 -16 -17 -18 -19 -20 -21 -22 -23 -24 -26 -27 -28 -29 -30 -31 -32 -33 -34 -35 -36 -37 -38 -39 -40 -41 -42 -43 -45 -46 -47 -48 0 
-7 8 -1 45 -11 -12 -13 -14 -15 -16 -17 -18 -19 -20 -21 -22 -23 -24 -26 -27 -28 -29 -30 -31 -32 -33 -34 -35 -36 -37 -38 -39 -40 -41 -42 -43 -44 -46 -47 -48 0 
-1 -5 45 -11 -12 -13 -14 -15 -16 -17 -18 -19 -20 -21 -22 -23 -24 -26 -27 -28 -29 -30 -31 -32 -33 -34 -35 -36 -37 -38 -39 -40 -41 -42 -43 -44 -46 -47 -48 0 
-1 -5 36 -11 -12 -13 -14 -15 -16 -17 -18 -19 -20 -21 -22 -23 -24 -26 -27 -28 -29 -30 -31 -32 -33 -34 -35 -37 -38 -39 -40 -41 -42 -43 -44 -45 -46 -47 -48 0 
-10 27 -11 -12 -13 -14 -15 -16 -17 -18 -19 -20 -21 -22 -23 -24 -26 -28 -29 -30 -31 -32 -33 -34 -35 -36 -37 -38 -39 -40 -41 -42 -43 -44 -45 -46 -47 -48 0 
-10 33 -11 -12 -13 -14 -15 -16 -17 -18 -19 -20 -21 -22 -23 -24 -26 -27 -28 -29 -30 -31 -32 -34 -35 -36 -37 -38 -39 -40 -41 -42 -43 -44 -45 -46 -47 -48 0 
-10 32 -11 -12 -13 -14 -15 -16 -17 -18 -19 -20 -21 -22 -23 -24 -26 -27 -28 -29 -30 -31 -33 -34 -35 -36 -37 -38 -39 -40 -41 -42 -43 -44 -45 -46 -47 -48 0 
-8 7 -1 46 -11 -12 -13 -14 -15 -16 -17 -18 -19 -20 -21 -22 -23 -24 -26 -27 -28 -29 -30 -31 -32 -33 -34 -35 -36 -37 -38 -39 -40 -41 -42 -43 -44 -45 -47 -48 0 
-8 7 -1 47 -11 -12 -13 -14 -15 -16 -17 -18 -19 -20 -21 -22 -23 -24 -26 -27 -28 -29 -30 -31 -32 -33 -34 -35 -36 -37 -38 -39 -40 -41 -42 -43 -44 -45 -46 -48 0 
-8 7 -1 48 -11 -12 -13 -14 -15 -16 -17 -18 -19 -20 -21 -22 -23 -24 -26 -27 -28 -29 -30 -31 -32 -33 -34 -35 -36 -37 -38 -39 -40 -41 -42 -43 -44 -45 -46 -47 0 
-1 -2 45 -11 -12 -13 -14 -15 -16 -17 -18 -19 -20 -21 -22 -23 -24 -26 -27 -28 -29 -30 -31 -32 -33 -34 -35 -36 -37 -38 -39 -40 -41 -42 -43 -44 -46 -47 -48 0 
-1 -2 36 -11 -12 -13 -14 -15 -16 -17 -18 -19 -20 -21 -22 -23 -24 -26 -27 -28 -29 -30 -31 -32 -33 -34 -35 -37 -38 -39 -40 -41 -42 -43 -44 -45 -46 -47 -48 0 
-1 -5 11 -12 -13 -14 -15 -16 -17 -18 -19 -20 -21 -22 -23 -24 -26 -27 -28 -29 -30 -31 -32 -33 -34 -35 -36 -37 -38 -39 -40 -41 -42 -43 -44 -45 -46 -47 -48 0 
-1 -5 14 -11 -12 -13 -15 -16 -17 -18 -19 -20 -21 -22 -23 -24 -26 -27 -28 -29 -30 -31 -32 -33 -34 -35 -36 -37 -38 -39 -40 -41 -42 -43 -44 -45 -46 -47 -48 0 
-1 -5 13 -11 -12 -14 -15 -16 -17 -18 -19 -20 -21 -22 -23 -24 -26 -27 -28 -29 -30 -31 -32 -33 -34 -35 -36 -37 -38 -39 -40 -41 -42 -43 -44 -45 -46 -47 -48 0 
-1 -5 12 -11 -13 -14 -15 -16 -17 -18 -19 -20 -21 -22 -23 -24 -26 -27 -28 -29 -30 -31 -32 -33 -34 -35 -36 -37 -38 -39 -40 -41 -42 -43 -44 -45 -46 -47 -48 0 
-1 -5 15 -11 -12 -13 -14 -16 -17 -18 -19 -20 -21 -22 -23 -24 -26 -27 -28 -29 -30 -31 -32 -33 -34 -35 -36 -37 -38 -39 -40 -41 -42 -43 -44 -45 -46 -47 -48 0 
